100 275112
15 57 48 88 60 4 34 77 1 9 33 50 43 78 67 71 52 63 32 62 64 100 76 23 83 13 45 39 58 35 31 46 14 90 22 37 27 75 73 74 28 56 96 79 5 3 10 11 86 81 49 98 80 93 54 47 44 24 19 21 16 51 41 2 12 61 17 72 59 40 30 53 95 82 26 38 69 68 97 42 87 6 18 36 85 91 99 55 66 89 92 94 20 8 70 65 25 29 7 84 
